AES/1_3_4/ssaes_r1-20_c3_rw1_e4_f0_k1-20_aes_canon_box_aes_mc_bidirectional/ExperimentMinisat_r15_k8cnf_2011-10-29-152051/Result
WARNING: for repeatability, setting FPU to use double precision
============================[ Problem Statistics ]=============================
|                                                                             |
|  Number of variables:          1836                                         |
|  Number of clauses:           10908                                         |
|  Parse time:                   0.00 s                                       |
|  Eliminated clauses:           0.02 Mb                                      |
|  Simplification time:          0.01 s                                       |
|                                                                             |
=============================[ Search Statistics ]==============================
| Conflicts  |          ORIGINAL         |          LEARNT          | Progress |
|            |    Vars  Clauses Literals |    Limit  Clauses Lit/Cl |          |
================================================================================
|        100 |    1500     9996    31044 |     3665      100     18 |  4.576 % |
|        250 |    1500     9996    31044 |     4031      250     20 |  4.575 % |
|        475 |    1500     9996    31044 |     4434      475     19 |  4.575 % |
|        812 |    1500     9996    31044 |     4878      812     19 |  4.575 % |
|       1318 |    1500     9996    31044 |     5366     1318     18 |  4.575 % |
===============================================================================
restarts              : 10
conflicts             : 1433           (8381 /sec)
decisions             : 1696           (0.00 % random) (9920 /sec)
propagations          : 1153264        (6745260 /sec)
conflict literals     : 25190          (60.84 % deleted)
Memory used           : 9.00 MB
CPU time              : 0.170974 s

SATISFIABLE
